(set-option :produce-models true)
(set-logic QF_UF)
(declare-fun p63() Bool)
(declare-fun p68() Bool)
(declare-fun p37() Bool)
(declare-fun p46() Bool)
(declare-fun p44() Bool)
(declare-fun p0() Bool)
(declare-fun p48() Bool)
(declare-fun p18() Bool)
(declare-fun p65() Bool)
(declare-fun p15() Bool)
(declare-fun p27() Bool)
(declare-fun p35() Bool)
(declare-fun p41() Bool)
(declare-fun p40() Bool)
(declare-fun p29() Bool)
(declare-fun p43() Bool)
(declare-fun p39() Bool)
(declare-fun p7() Bool)
(declare-fun p26() Bool)
(declare-fun p21() Bool)
(declare-fun p61() Bool)
(declare-fun p49() Bool)
(declare-fun p24() Bool)
(declare-fun p59() Bool)
(declare-fun p50() Bool)
(declare-fun p9() Bool)
(declare-fun p19() Bool)
(declare-fun p69() Bool)
(declare-fun p42() Bool)
(declare-fun p64() Bool)
(declare-fun p60() Bool)
(declare-fun p1() Bool)
(declare-fun p23() Bool)
(declare-fun p20() Bool)
(declare-fun p58() Bool)
(declare-fun p34() Bool)
(declare-fun p52() Bool)
(declare-fun p62() Bool)
(declare-fun p66() Bool)
(declare-fun p45() Bool)
(declare-fun p11() Bool)
(declare-fun p31() Bool)
(declare-fun p33() Bool)
(declare-fun p8() Bool)
(declare-fun p25() Bool)
(declare-fun p13() Bool)
(declare-fun p28() Bool)
(declare-fun p16() Bool)
(declare-fun p30() Bool)
(declare-fun p10() Bool)
(declare-fun p5() Bool)
(declare-fun p32() Bool)
(declare-fun p22() Bool)
(declare-fun p3() Bool)
(declare-fun p12() Bool)
(declare-fun p14() Bool)
(declare-fun p54() Bool)
(declare-fun p36() Bool)
(declare-fun p4() Bool)
(declare-fun p47() Bool)
(declare-fun p56() Bool)
(declare-fun p17() Bool)
(declare-fun p53() Bool)
(declare-fun p55() Bool)
(declare-fun p57() Bool)
(declare-fun p2() Bool)
(declare-fun p51() Bool)
(declare-fun p6() Bool)
(declare-fun p67() Bool)
(declare-fun p38() Bool)
(assert
(and (or (not p63) p63 (not p68)) (or (not p37) p46 p44) (or p0 (not p48) p18) (or (not p65) (not p15) (not p27)) (or (not p48) (not p35) (not p41)) (or p40 (not p48) p29) (or (not p43) (not p39) (not p35)) (or (not p7) (not p43) (not p26)) (or (not p21) p61 p49) (or (not p24) (not p59) (not p24)) (or (not p39) p48 p41) (or (not p50) p9 (not p19)) (or p69 p42 (not p64)) (or (not p26) p44 p60) (or p1 p59 p23) (or p61 (not p69) p59) (or p63 (not p20) p58) (or (not p20) p34 p40) (or p44 (not p52) (not p62)) (or (not p18) (not p66) (not p45)) (or (not p11) (not p1) (not p68)) (or p31 p33 (not p8)) (or (not p37) (not p25) p63) (or p13 (not p28) p25) (or p64 (not p52) (not p27)) (or (not p16) (not p30) (not p10)) (or p5 (not p21) p32) (or p45 (not p37) (not p22)) (or p48 (not p32) p58) (or p39 (not p3) (not p69)) (or (not p15) (not p45) p5) (or (not p12) p43 p60) (or p20 p41 p22) (or p14 p10 p23) (or (not p27) (not p45) p45) (or (not p5) (not p8) p19) (or p7 p42 p54) (or p36 (not p18) (not p28)) (or (not p65) (not p48) p44) (or (not p21) (not p41) p9) (or (not p39) p46 p40) (or p58 (not p39) p50) (or (not p3) (not p25) p49) (or p12 p43 p24) (or p7 p63 p0) (or p25 p59 (not p58)) (or p14 p4 (not p33)) (or p30 p26 (not p8)) (or p21 (not p35) p12) (or (not p12) p15 (not p35)) (or p47 (not p61) p40) (or p34 p56 (not p26)) (or p17 (not p9) p24) (or p33 p28 (not p30)) (or (not p53) p20 p20) (or p55 p23 (not p43)) (or p53 p56 (not p37)) (or p30 (not p26) (not p57)) (or (not p2) p40 (not p30)) (or (not p27) (not p55) (not p5)) (or (not p22) p22 p47) (or p53 (not p11) (not p14)) (or (not p26) p69 (not p52)) (or p41 p66 (not p47)) (or (not p2) (not p25) p13) (or (not p22) p51 (not p28)) (or (not p50) (not p9) p27) (or (not p62) p27 p59) (or (not p58) (not p22) p69) (or (not p65) (not p31) (not p33)) (or (not p40) (not p41) (not p23)) (or (not p18) p42 p31) (or (not p32) p41 p33) (or p18 p41 p4) (or p69 p68 (not p30)) (or (not p42) (not p46) p65) (or p33 (not p1) (not p27)) (or (not p61) p65 p53) (or (not p46) (not p33) (not p22)) (or p13 p23 p56) (or p36 p3 p52) (or p11 (not p16) (not p69)) (or p39 p19 p7) (or (not p6) p26 p13) (or p53 (not p21) (not p18)) (or (not p57) p6 (not p7)) (or (not p45) p63 p67) (or p12 (not p61) (not p34)) (or p51 (not p7) (not p5)) (or (not p8) (not p28) p47) (or (not p5) p45 (not p44)) (or p25 p5 (not p27)) (or (not p25) p23 p56) (or (not p1) (not p13) p27) (or p67 (not p43) p29) (or (not p55) (not p11) (not p60)) (or p56 p53 p9) (or p37 (not p64) p51) (or p14 (not p55) (not p58)) (or (not p18) (not p51) (not p22)) (or p16 (not p6) (not p59)) (or p60 (not p15) p42) (or (not p5) p46 p26) (or (not p48) (not p55) (not p5)) (or (not p12) (not p66) p46) (or p36 (not p54) (not p50)) (or p16 (not p6) (not p3)) (or (not p44) (not p7) p67) (or p21 (not p57) (not p22)) (or (not p12) p62 (not p38)) (or (not p8) p3 (not p44)) (or p18 (not p54) (not p19)) (or p17 (not p39) p54) (or (not p43) (not p9) p19) (or (not p8) p35 p44) (or p18 (not p56) p1) (or p18 (not p39) p12) (or p30 (not p34) p38) (or p68 p55 p41) (or (not p34) (not p16) p37) (or p23 p4 (not p47)) (or (not p54) p64 (not p38)) (or (not p0) p8 p11) (or (not p27) p28 p49) (or p35 p12 (not p44)) (or (not p46) p42 p69) (or p11 (not p15) (not p67)) (or p45 p20 (not p47)) (or p11 p44 p8) (or (not p57) p16 (not p26)) (or p41 (not p35) (not p19)) (or (not p62) (not p41) p15) (or p47 (not p33) (not p57)) (or p19 (not p48) p18) (or p7 p27 (not p30)) (or p35 (not p22) (not p50)) (or p3 (not p24) (not p30)) (or (not p55) p37 (not p16)) (or p39 p40 (not p64)) (or (not p25) p35 (not p11)) (or p31 p45 p1) (or (not p54) (not p34) p46) (or p5 p17 p20) (or (not p63) p41 p42) (or (not p47) p16 p42) (or (not p38) p29 (not p41)) (or (not p12) p0 (not p34)) (or p35 (not p51) p17) (or (not p40) p21 (not p0)) (or p40 (not p69) (not p39)) (or (not p61) (not p28) p52) (or (not p27) p34 (not p52)) (or (not p67) (not p9) p60) (or p44 p48 p40) (or p11 p49 p40) (or p62 p14 (not p40)) (or p21 (not p69) (not p36)) (or p7 p1 p68) (or (not p50) p29 (not p58)) (or (not p26) p25 (not p1)) (or (not p63) (not p29) p38) (or p10 (not p35) (not p64)) (or (not p60) (not p23) p58) (or (not p8) (not p52) p10) (or p45 (not p13) p43) (or (not p54) (not p27) p0) (or (not p55) (not p42) (not p51)) (or (not p21) p13 (not p32)) (or p27 p27 (not p35)) (or (not p7) p18 (not p28)) (or p34 p24 (not p34)) (or p67 p12 (not p61)) (or (not p0) (not p58) (not p32)) (or (not p9) (not p23) p32) (or (not p46) p9 (not p36)) (or (not p60) p14 (not p21)) (or p61 (not p17) (not p1)) (or p46 p11 p44) (or (not p30) p16 (not p67)) (or p63 (not p64) p36) (or p49 (not p27) (not p20)) (or p49 (not p49) p35) (or p51 (not p4) (not p5)) (or (not p17) p47 p21) (or p33 p62 (not p19)) (or p8 p69 p46) (or (not p46) (not p1) (not p40)) (or p60 (not p44) p13) (or (not p49) p58 (not p28)) (or (not p52) p21 (not p41)) (or (not p2) p50 p12) (or p0 (not p13) p65) (or (not p0) p3 (not p39)) (or p63 p46 p5) (or (not p5) p35 (not p30)) (or p8 (not p53) p34) (or p62 (not p40) (not p33)) (or (not p33) (not p22) (not p23)) (or p45 (not p61) p30) (or p64 p24 p63) (or p39 p8 p27) (or (not p39) p34 (not p10)) (or (not p57) (not p42) (not p60)) (or p28 (not p53) (not p56)) (or (not p19) (not p47) (not p46)) (or p49 (not p22) (not p45)) (or (not p53) (not p27) p33) (or p37 p18 p64) (or p37 p53 p50) (or p38 p9 (not p11)) (or (not p47) (not p47) p35) (or p54 (not p18) (not p6)) (or (not p6) p63 (not p7)) (or p61 p32 (not p18)) (or p40 (not p42) (not p51)) (or p8 (not p55) p67) (or p24 p58 p66) (or p55 p53 p22) (or p13 p35 (not p34)) (or p67 p65 (not p66)) (or p26 (not p47) p24) (or (not p4) p67 p55) (or p68 (not p41) p48) (or p45 p30 (not p68)) (or (not p29) p44 (not p39)) (or (not p67) p58 (not p16)) (or (not p42) (not p11) (not p19)) (or p34 p46 (not p39)) (or (not p39) (not p39) p47) (or (not p24) (not p39) (not p6)) (or p38 (not p44) p1) (or (not p40) p62 p58) (or (not p32) (not p29) p9) (or (not p38) p20 p41) (or (not p47) (not p45) (not p15)) (or (not p2) (not p36) (not p5)) (or p12 p26 (not p54)) (or p61 p65 p21) (or (not p0) p68 (not p68)) (or p53 (not p51) (not p64)) (or (not p21) p59 p7) (or p22 p52 (not p46)) (or (not p7) (not p18) p63) (or (not p7) (not p20) (not p56)) (or p63 (not p45) p45) (or p42 p2 p0) (or p58 p37 (not p22)) (or p20 p27 (not p68)) (or (not p55) p22 p27) (or p1 (not p18) (not p25)) (or p42 p8 p17) (or (not p42) p13 p48) (or p30 p46 (not p62)) (or p12 (not p27) (not p23)) (or p62 (not p34) (not p48)) (or (not p20) (not p26) (not p28)) (or p23 (not p49) (not p40)) (or (not p58) p57 (not p48)) (or (not p31) p21 p34) (or (not p33) (not p36) p36) (or p59 p31 (not p63)) (or p0 p26 p13) (or p16 p27 (not p38)) (or (not p23) (not p61) (not p47)) (or p69 p53 p10) (or p16 p8 (not p39)) (or (not p35) (not p40) (not p9)) (or p61 p49 p68) (or (not p43) (not p25) p10) (or (not p23) (not p64) p45) (or (not p60) (not p65) (not p41)) (or (not p44) (not p21) p53) (or (not p8) p20 p36) (or (not p3) (not p15) p37) (or p9 p2 p9) (or (not p30) p58 (not p3)) (or (not p18) p35 (not p57)) (or (not p25) (not p31) (not p47)) (or p50 (not p27) p64) (or (not p47) p5 (not p48)) (or (not p21) p34 (not p39)) (or (not p15) (not p34) (not p48)) (or p67 (not p44) p32) (or (not p63) (not p55) (not p44)) (or (not p51) p51 (not p7)) (or p38 (not p55) (not p60)) (or (not p4) (not p52) (not p19)) (or p51 (not p55) (not p37)) (or (not p48) p27 p19) (or p56 p48 (not p62)) (or p65 (not p12) (not p36)) (or p12 p12 (not p50)) (or (not p28) p24 p55) (or p21 p14 p63) (or (not p48) p10 (not p63)) (or p61 p63 p38) (or (not p42) p18 (not p46)))
)
(check-sat)
(get-model)
